; benchmark generated from python API
(set-info :status unknown)
(declare-fun S_1 () Real)
(declare-fun S_2 () Real)
(declare-fun S_3 () Real)
(declare-fun S_4 () Real)
(declare-fun A_3 () Real)
(declare-fun L_3 () Real)
(declare-fun L_4 () Real)
(declare-fun A_4 () Real)
(declare-fun L_2 () Real)
(declare-fun A_2 () Real)
(declare-fun S_0 () Real)
(declare-fun A_1 () Real)
(declare-fun L_1 () Real)
(declare-fun A_0 () Real)
(declare-fun L_0 () Real)
(assert
 (let ((?x851 (* (- 1.0) A_1)))
 (let ((?x8293 (* (- (/ 1.0 2.0)) L_0)))
 (let ((?x8323 (* (/ 1.0 2.0) A_0)))
 (let ((?x40623 (* (- (/ 1.0 2.0)) L_2)))
 (let ((?x40191 (* (/ 1.0 2.0) A_2)))
 (let (($x39593 (<= (+ ?x40191 ?x40623 ?x8323 ?x8293 L_1 ?x851) 0.0)))
 (let ((?x1293 (* 2.0 A_2)))
 (let ((?x1303 (* (- 2.0) A_0)))
 (let ((?x1291 (* (- 2.0) L_2)))
 (let ((?x12891 (* 2.0 S_0)))
 (let ((?x1269 (* (- 1.0) S_4)))
 (let ((?x1853 (* 3.0 L_1)))
 (let (($x6547 (<= (+ (* (- 1.0) L_3) A_3 ?x1269) 0.0)))
 (let ((?x703 (* (- 1.0) L_0)))
 (let ((?x712 (* (- 1.0) L_1)))
 (let (($x506 (= ?x712 ?x703)))
 (let (($x510233 (or $x506 $x6547 (<= (+ ?x1853 ?x851 ?x1269 ?x12891 ?x1291 ?x1303 ?x1293) 0.0) $x39593)))
 (let ((?x716 (* (- 1.0) A_2)))
 (let ((?x1298 (* (- 1.0) S_1)))
 (let ((?x8402 (* (/ 3.0 2.0) A_0)))
 (let ((?x11316 (* (/ 1.0 2.0) S_4)))
 (let (($x11628 (<= (+ ?x11316 ?x8402 ?x8293 ?x1298 L_2 ?x712 ?x716) 0.0)))
 (let (($x11781 (<= (+ ?x11316 ?x8402 (* (- (/ 3.0 2.0)) L_0) (* 2.0 L_1) (* (- 2.0) A_1)) 0.0)))
 (let (($x9542 (<= (+ ?x712 ?x1298 A_0) 0.0)))
 (let (($x486315 (or $x9542 (not $x11781) $x11628 (not (<= (+ ?x11316 ?x8402 ?x8293 ?x1298 ?x716) 0.0)))))
 (let ((?x35559 (* (/ 1.0 3.0) S_4)))
 (let ((?x38015 (* (/ 2.0 3.0) A_1)))
 (let ((?x37492 (* (- (/ 2.0 3.0)) L_1)))
 (let (($x33731 (<= (+ ?x37492 ?x38015 ?x35559 ?x1298 A_0 ?x716) 0.0)))
 (let ((?x721 (* (- 1.0) L_2)))
 (let (($x661 (= ?x721 ?x712)))
 (let ((?x1297 (* 2.0 A_0)))
 (let ((?x1545 (* 2.0 S_4)))
 (let ((?x1294 (* (- 2.0) A_3)))
 (let ((?x1292 (* 2.0 L_3)))
 (let (($x151757 (<= (+ ?x1292 ?x1294 ?x1545 ?x1297 ?x703 ?x1298 ?x716) 0.0)))
 (let ((?x1627 (* (- 2.0) L_1)))
 (let ((?x796 (* (- 1.0) A_3)))
 (let (($x67466 (<= (+ L_3 ?x796 S_4 ?x1627 A_1 ?x1298 L_2 A_0 ?x716) 0.0)))
 (let (($x208771 (or $x9542 $x67466 (<= (+ ?x1292 ?x1294 ?x1545 ?x1297 ?x703 ?x1298 L_2 ?x712 ?x716) 0.0) (not $x151757))))
 (let ((?x922 (* (- 1.0) A_4)))
 (let ((?x863 (* (- 1.0) A_0)))
 (let ((?x730 (* (- 1.0) L_3)))
 (let (($x7245 (<= (+ ?x730 A_3 ?x863 L_0 ?x922 L_4 ?x712 A_1) 0.0)))
 (let ((?x1865 (* 2.0 A_1)))
 (let ((?x1657 (* 2.0 L_4)))
 (let ((?x1659 (* (- 2.0) A_4)))
 (let ((?x2128 (* 3.0 S_2)))
 (let ((?x2071 (* 3.0 L_0)))
 (let ((?x1658 (* (- 3.0) A_0)))
 (let (($x2130 (<= (+ ?x1658 ?x2071 ?x2128 ?x1659 ?x1657 ?x1627 ?x1865) 0.0)))
 (let ((?x701 (* (- 1.0) L_4)))
 (let (($x642 (= ?x701 ?x730)))
 (let ((?x1279 (* 2.0 A_3)))
 (let ((?x1277 (* (- 2.0) L_3)))
 (let (($x35337 (<= (+ ?x716 L_2 L_1 S_0 ?x922 L_4 ?x1277 ?x863 ?x1279) 0.0)))
 (let (($x1326 (<= (+ A_0 ?x703 L_1 L_2 ?x730 ?x851 ?x716 A_3) 0.0)))
 (let ((?x1624 (* (- 2.0) L_4)))
 (let ((?x1628 (* 2.0 A_4)))
 (let (($x7179 (<= (+ ?x1292 ?x1294 ?x703 S_0 ?x1628 ?x1624 L_1 L_2 ?x716) 0.0)))
 (let (($x4490 (<= (+ A_4 ?x701 L_3 ?x712 L_2 A_1 ?x716 ?x796) 0.0)))
 (let (($x2160 (<= (+ A_0 ?x703 A_4 ?x701 L_1 L_3 ?x851 ?x796) 0.0)))
 (let ((?x37483 (* (/ 1.0 2.0) S_3)))
 (let ((?x28504 (* (/ 1.0 2.0) A_1)))
 (let ((?x28494 (* (- (/ 3.0 2.0)) L_1)))
 (let (($x33275 (<= (+ ?x28494 ?x28504 ?x37483 ?x1298 L_2 A_0 ?x716) 0.0)))
 (let ((?x12508 (* (/ 2.0 3.0) S_3)))
 (let ((?x12486 (* (- (/ 1.0 3.0)) L_0)))
 (let ((?x12462 (* (/ 4.0 3.0) A_0)))
 (let (($x13549 (<= (+ ?x12462 ?x12486 ?x12508 ?x1298 L_2 ?x701 ?x716) 0.0)))
 (let (($x2452 (<= (+ A_2 ?x721 ?x1303 (* 2.0 L_0) S_1 ?x922 L_4 ?x712 A_1) 0.0)))
 (let (($x2133 (<= (+ ?x1658 ?x2071 (* 3.0 S_1) ?x922 L_4 ?x712 A_1) 0.0)))
 (let ((?x8419 (* (/ 1.0 2.0) L_0)))
 (let ((?x8423 (* (- (/ 1.0 2.0)) A_0)))
 (let ((?x40354 (* (- (/ 3.0 2.0)) L_2)))
 (let ((?x38629 (* (/ 3.0 2.0) A_2)))
 (let ((?x1706 (* (- 3.0) A_1)))
 (let ((?x1655 (* 4.0 L_1)))
 (let ((?x1707 (* (- 2.0) L_0)))
 (let (($x2394 (<= (+ A_2 ?x721 (* (- 1.0) S_3)) 0.0)))
 (let ((?x1882 (* (- 2.0) A_1)))
 (let ((?x1621 (* 2.0 L_1)))
 (let ((?x1274 (* (- 1.0) S_3)))
 (let (($x1880 (<= (+ A_0 ?x703 ?x1274 ?x1621 ?x1291 ?x1882 ?x1293) 0.0)))
 (let (($x490637 (or $x506 (<= (+ A_1 (* (- 2.0) S_3) S_0 ?x730 ?x863 A_3) 0.0) $x1880 $x2394 (<= (+ A_0 ?x1707 S_0 ?x730 ?x1655 ?x1706 A_3) 0.0))))
 (let ((?x1285 (* (- 3.0) A_3)))
 (let ((?x1649 (* 3.0 A_1)))
 (let ((?x1282 (* (- 3.0) L_2)))
 (let ((?x1283 (* 3.0 L_3)))
 (let (($x8444 (<= (+ ?x1658 ?x2071 ?x2128 ?x1283 ?x1282 ?x1649 ?x1285) 0.0)))
 (let (($x8440 (<= (+ ?x1658 ?x2071 ?x2128 ?x1649 ?x1285) 0.0)))
 (let (($x8394 (not $x8440)))
 (let (($x4313 (<= (+ L_1 ?x1291 L_3 ?x851 ?x1293 ?x796) 0.0)))
 (let (($x4249 (not $x4313)))
 (let ((?x1893 (* (- 3.0) L_1)))
 (let ((?x1767 (* 2.0 S_3)))
 (let ((?x1650 (* 2.0 L_0)))
 (let (($x4108 (<= (+ ?x1303 ?x1650 ?x1767 ?x1893 ?x1283 ?x1649 ?x1285) 0.0)))
 (let (($x1611 (<= (+ ?x712 A_1 (* (- 1.0) S_2)) 0.0)))
 (let (($x1290 (<= (+ A_0 ?x703 (* (- 1.0) S_2) L_2 ?x730 ?x716 A_3) 0.0)))
 (let (($x855 (not $x1290)))
 (let (($x638 (= ?x730 ?x712)))
 (let (($x10506 (<= (+ ?x712 A_1 L_0 ?x721 L_3 ?x863 A_2 ?x796) 0.0)))
 (let (($x9551 (<= (+ ?x730 ?x1298 A_0) 0.0)))
 (let (($x9571 (not $x9551)))
 (let (($x9529 (<= (+ ?x721 ?x1298 A_0) 0.0)))
 (let (($x4065 (<= (+ S_4 ?x863 L_0 ?x1627 ?x1292 ?x1865 ?x1294) 0.0)))
 (let (($x65224 (<= (+ A_2 ?x721 (* (- 2.0) S_4) ?x863 S_0 A_4 ?x701 L_1) 0.0)))
 (let ((?x3917 (* (- 3.0) L_4)))
 (let ((?x3919 (* 3.0 A_4)))
 (let ((?x1656 (* 3.0 S_0)))
 (let (($x18320 (<= (+ (* (- 4.0) S_4) ?x1303 ?x703 ?x1656 ?x3919 ?x3917 ?x1853) 0.0)))
 (let (($x2088 (not $x2160)))
 (let (($x497683 (or $x506 $x2088 (<= (+ ?x1269 A_0 ?x703 A_4 ?x701 L_1 ?x851) 0.0) $x18320 $x65224)))
 (let (($x2082 (<= (+ ?x863 L_0 S_3 ?x922 L_4 ?x712 A_1) 0.0)))
 (let (($x16625 (<= (+ ?x730 A_3 ?x851 S_2 ?x1298 ?x922 L_4 A_0) 0.0)))
 (let (($x16376 (<= (+ ?x1621 ?x1882 ?x2128 ?x1298 ?x922 L_4 ?x721 A_0) 0.0)))
 (let (($x202826 (or $x9542 $x16376 $x16625 $x39593 (not (<= (+ L_3 ?x40191 ?x40623 ?x8323 ?x8293 ?x701 L_1 ?x851) 0.0)))))
 (let ((?x35796 (* (- (/ 2.0 3.0)) L_4)))
 (let ((?x38192 (* (/ 2.0 3.0) A_4)))
 (let ((?x34345 (* (/ 1.0 3.0) A_1)))
 (let ((?x38162 (* (- (/ 1.0 3.0)) L_1)))
 (let (($x36557 (<= (+ ?x38162 ?x34345 ?x38192 ?x35796 L_3 ?x796) 0.0)))
 (let (($x657 (not $x661)))
 (let (($x636 (= ?x730 ?x721)))
 (let (($x200804 (or $x636 (<= (+ A_0 ?x703 ?x1628 ?x1624 L_2 ?x1292 ?x716 ?x1294) 0.0) $x9542 $x10506)))
 (let (($x38688 (<= (+ ?x712 S_2 ?x1298 L_2 A_0 ?x716) 0.0)))
 (let (($x500700 (or $x638 (<= (+ ?x8323 ?x8419 (* (/ 3.0 2.0) S_2) ?x1298 L_3 ?x712 ?x796) 0.0) $x38688)))
 (let (($x500014 (or $x638 (<= (+ ?x851 (* 2.0 S_2) ?x1298 L_3 A_0 ?x796) 0.0) $x38688)))
 (let ((?x1284 (* 3.0 A_2)))
 (let ((?x8399 (* (/ 3.0 2.0) S_2)))
 (let (($x8442 (<= (+ (* (- (/ 3.0 2.0)) A_0) (* (/ 3.0 2.0) L_0) ?x8399 ?x1284 ?x1285) 0.0)))
 (let (($x1305 (<= (+ ?x1303 L_0 S_0 L_1 ?x1282 ?x1292 ?x1284 ?x1294) 0.0)))
 (let (($x25845 (<= (+ ?x863 ?x703 (* (- 3.0) S_3) ?x12891 ?x1277 ?x1621 ?x1279) 0.0)))
 (let (($x1903 (not (<= (+ A_0 ?x703 ?x1621 ?x721 ?x1882 A_2) 0.0))))
 (let (($x501061 (or $x506 $x1903 $x2394 (<= (+ A_0 ?x703 ?x1274 L_1 ?x730 ?x851 A_3) 0.0) $x25845)))
 (let ((?x39176 (* (- (/ 1.0 4.0)) L_0)))
 (let ((?x61305 (* (/ 5.0 4.0) A_0)))
 (let ((?x57999 (* (/ 3.0 4.0) S_4)))
 (let (($x39592 (<= (+ (* (- (/ 4.0 3.0)) L_1) ?x34345 (* (/ 2.0 3.0) S_4) ?x1298 L_3 A_0 ?x796) 0.0)))
 (let (($x207563 (or $x636 $x9542 $x39592 (<= (+ ?x40191 ?x40623 ?x11316 ?x712 ?x1298 L_3 A_0 ?x796) 0.0) (<= (+ ?x57999 ?x61305 ?x39176 ?x1298 L_3 ?x712 ?x796) 0.0))))
 (let (($x13348 (<= (+ (* (- 6.0) A_0) (* 6.0 L_0) (* 6.0 S_1) ?x1649 ?x1285) 0.0)))
 (let (($x13717 (not $x13348)))
 (let ((?x13145 (* 6.0 S_1)))
 (let ((?x13560 (* 6.0 L_0)))
 (let ((?x13554 (* (- 6.0) A_0)))
 (let (($x13551 (<= (+ ?x13554 ?x13560 ?x13145 ?x1283 ?x1282 ?x1649 ?x1285) 0.0)))
 (let (($x3719 (<= (+ ?x863 L_0 S_2 ?x712 L_3 A_1 ?x796) 0.0)))
 (let (($x12848 (<= (+ (* (- 2.0) S_4) (* (- 4.0) A_0) L_0 ?x1656 ?x1282 ?x1853 ?x1284) 0.0)))
 (let (($x501342 (or $x506 (<= (+ ?x1269 A_0 ?x703 ?x1853 ?x1282 ?x1706 ?x1284) 0.0) $x6547 $x12848)))
 (let (($x1911 (<= (+ ?x863 L_0 S_1 ?x712 L_2 A_1 ?x716) 0.0)))
 (let ((?x1278 (* (- 2.0) A_2)))
 (let ((?x1275 (* 2.0 L_2)))
 (let ((?x12526 (* (/ 2.0 3.0) L_0)))
 (let ((?x12525 (* (- (/ 2.0 3.0)) A_0)))
 (let (($x12542 (<= (+ ?x12525 ?x12526 ?x12508 ?x1275 ?x1627 ?x1865 ?x1278) 0.0)))
 (let (($x13309 (<= (+ L_1 A_1 (* (- 3.0) S_4) ?x12891 ?x1628 ?x1624 ?x1303) 0.0)))
 (let ((?x1931 (* (- 4.0) A_1)))
 (let ((?x13980 (* 5.0 L_1)))
 (let ((?x2098 (* (- 3.0) L_0)))
 (let (($x4312 (<= (+ ?x1297 ?x1707 ?x1853 ?x730 ?x1706 A_3) 0.0)))
 (let (($x498186 (or $x506 $x2394 $x4312 (<= (+ ?x712 ?x1865 (* (- 3.0) S_3) S_0 A_4 ?x701 ?x863) 0.0) (<= (+ ?x1297 ?x2098 S_0 A_4 ?x701 ?x13980 ?x1931) 0.0))))
 (let (($x1909 (<= (+ ?x863 L_0 S_2 ?x1627 ?x1275 ?x1865 ?x1278) 0.0)))
 (let (($x2442 (<= (+ A_2 ?x721 S_4 ?x1303 ?x1650 ?x1659 ?x1657 ?x1627 ?x1865) 0.0)))
 (let ((?x1575 (* (- 4.0) L_1)))
 (let ((?x2073 (* 4.0 L_4)))
 (let ((?x2103 (* (- 4.0) A_4)))
 (let ((?x2105 (* 3.0 S_4)))
 (let (($x2084 (<= (+ ?x2105 ?x1658 ?x2071 ?x2103 ?x2073 ?x1575 (* 4.0 A_1)) 0.0)))
 (let (($x503811 (or $x9542 (<= (+ ?x1621 ?x1882 ?x2128 ?x1298 ?x922 L_4 ?x730 A_0) 0.0) (not (<= (+ ?x1621 ?x1882 ?x2128 ?x1298 ?x922 A_0) 0.0)) $x16625)))
 (let (($x34719 (<= (+ A_2 ?x721 ?x1269 A_4 ?x701 L_3 ?x796) 0.0)))
 (let (($x484803 (or $x636 $x2088 (<= (+ ?x1269 A_0 ?x703 ?x3919 ?x3917 ?x1283 ?x1285) 0.0) $x6547 $x34719)))
 (let (($x3863 (<= (+ S_4 ?x863 L_0 ?x2103 ?x2073 (* (- 4.0) L_3) (* 4.0 A_3)) 0.0)))
 (let ((?x1198 (* 3.0 A_3)))
 (let ((?x1197 (* (- 3.0) L_3)))
 (let ((?x3885 (* 3.0 L_4)))
 (let ((?x3883 (* (- 3.0) A_4)))
 (let (($x3873 (<= (+ ?x863 L_0 S_3 ?x3883 ?x3885 ?x1197 ?x1198) 0.0)))
 (let ((?x1332 (* 4.0 A_3)))
 (let ((?x1330 (* (- 4.0) L_3)))
 (let (($x3924 (<= (+ ?x1303 L_0 S_0 ?x3883 ?x3885 L_1 ?x1330 ?x1332) 0.0)))
 (let (($x2148 (<= (+ ?x1659 ?x1657 L_1 ?x1197 ?x851 ?x1198) 0.0)))
 (let ((?x12551 (* (/ 4.0 3.0) S_3)))
 (let (($x20676 (<= (+ (* (- (/ 4.0 3.0)) A_0) (* (/ 4.0 3.0) L_0) ?x12551 ?x1659 ?x1657 ?x1291 ?x1293) 0.0)))
 (let (($x7482 (<= (+ ?x863 L_0 S_2 ?x922 L_4 ?x721 A_2) 0.0)))
 (let (($x7518 (<= (+ ?x1303 L_0 S_0 ?x922 L_4 L_1 ?x1291 ?x1293) 0.0)))
 (let (($x2152 (<= (+ ?x922 L_4 ?x1621 ?x1282 ?x1882 ?x1284) 0.0)))
 (let (($x65748 (<= (+ ?x716 L_2 A_0 (* (- 2.0) S_2) ?x1707 S_0 A_4 ?x701 L_1) 0.0)))
 (let (($x2412 (<= (+ ?x716 L_2 ?x1297 (* (- 1.0) S_2) ?x1707 A_4 ?x701 L_1 ?x851) 0.0)))
 (let (($x40833 (<= (+ ?x730 A_3 ?x8323 ?x8419 (* (/ 1.0 2.0) S_2) ?x1298 ?x922 L_4 ?x721) 0.0)))
 (let (($x220404 (or $x642 (<= (+ L_0 (* 2.0 S_2) ?x1298 ?x922 L_4 ?x712) 0.0) $x38688 $x40833)))
 (let (($x7231 (<= (+ ?x1277 ?x1279 L_0 ?x1298 ?x1659 ?x1657 ?x712 ?x721 A_2) 0.0)))
 (let (($x37373 (<= (+ (* (/ 1.0 3.0) L_1) ?x38015 (* (/ 1.0 3.0) A_4) (* (- (/ 1.0 3.0)) L_4) ?x716) 0.0)))
 (let (($x37543 (<= (+ ?x37492 ?x38015 (* (/ 1.0 3.0) A_4) (* (- (/ 1.0 3.0)) L_4) L_2 ?x716) 0.0)))
 (let (($x43359 (<= (+ L_3 ?x796 ?x8423 (* (- (/ 1.0 2.0)) S_3) ?x8293 S_0 A_4 ?x701 L_1) 0.0)))
 (let (($x498182 (or $x506 $x1880 $x2394 (<= (+ L_3 ?x796 A_1 ?x1274 S_0 A_4 ?x701 ?x863) 0.0) $x43359)))
 (let (($x18313 (<= (+ ?x703 (* (- 2.0) S_3) S_0 A_4 ?x701 L_1) 0.0)))
 (let (($x33379 (<= (+ ?x716 L_2 S_3 ?x922 L_4 ?x730 A_3) 0.0)))
 (let (($x194457 (or $x506 $x1326 $x1611 $x35337 (not (<= (+ ?x716 L_2 ?x863 S_0 ?x922 ?x701 L_1 ?x1279) 0.0)))))
 (let (($x65588 (<= (+ ?x716 L_2 ?x863 S_0 ?x922 ?x701 L_1 ?x1279) 0.0)))
 (let (($x7249 (<= (+ ?x1292 ?x1294 ?x1297 ?x1707 ?x3919 ?x3917 (* 3.0 L_2) (* (- 3.0) A_2)) 0.0)))
 (let (($x13575 (<= (+ ?x1655 ?x1882 ?x12891 ?x922 L_4 ?x1282 ?x1303 ?x1284) 0.0)))
 (let (($x6563 (<= (+ ?x730 A_3 ?x922 L_4 L_1 ?x721 ?x851 A_2) 0.0)))
 (let (($x7474 (<= (+ S_4 ?x863 L_0 ?x1659 ?x1657 ?x1291 ?x1293) 0.0)))
 (let (($x7516 (<= (+ ?x1303 ?x1650 (* 2.0 S_1) ?x922 L_4 ?x721 A_2) 0.0)))
 (let (($x21379 (<= (+ L_1 ?x851 S_3 ?x922 L_4 ?x721 A_2) 0.0)))
 (let (($x11155 (<= (+ ?x1621 ?x851 S_0 ?x1659 ?x1657 ?x1197 ?x863 ?x1198) 0.0)))
 (let ((?x28298 (* (/ 3.0 2.0) S_3)))
 (let ((?x28000 (* (- (/ 1.0 2.0)) A_1)))
 (let ((?x27975 (* (- (/ 1.0 2.0)) L_1)))
 (let (($x33457 (<= (+ ?x27975 ?x28000 ?x28298 ?x1298 ?x922 L_4 A_0) 0.0)))
 (let (($x19117 (<= (+ S_3 ?x1298 L_3 ?x701 A_0 ?x796) 0.0)))
 (let (($x34904 (<= (+ ?x716 L_2 ?x1767 A_0 ?x1298 ?x922 L_4 ?x712) 0.0)))
 (let (($x10477 (<= (+ L_1 ?x851 S_3 ?x1291 ?x1292 ?x1293 ?x1294) 0.0)))
 (let (($x194745 (or $x10477 (not (<= (+ L_1 ?x851 S_3 ?x1292 ?x1624 ?x1293 ?x1294) 0.0)) $x33275 $x33457)))
 (let (($x13345 (<= (+ ?x1621 ?x1882 ?x1545 ?x3883 ?x3885 ?x1282 ?x1284) 0.0)))
 (let (($x7229 (<= (+ ?x1292 ?x1294 S_4 A_0 ?x703 A_4 ?x701 L_2 ?x716) 0.0)))
 (let (($x47978 (<= (+ ?x1627 ?x1865 ?x1274 L_0 ?x863) 0.0)))
 (let (($x128845 (or $x2394 (<= (+ L_3 ?x796 S_4 ?x8323 (* (- (/ 1.0 2.0)) S_3) ?x8293) 0.0) $x47978)))
 (let (($x113146 (<= (+ (* (- (/ 2.0 3.0)) L_3) (* (/ 2.0 3.0) A_3) (* (/ 1.0 3.0) A_0) ?x1274 ?x12486) 0.0)))
 (let (($x7216 (<= (+ ?x730 A_3 (* (- 1.0) S_2) ?x922 L_4 ?x721 A_2) 0.0)))
 (let (($x3878 (<= (+ A_0 ?x703 (* (- 1.0) S_2) A_4 ?x701 L_3 ?x796) 0.0)))
 (let (($x2093 (<= (+ (* 3.0 A_0) ?x2098 (* (- 3.0) S_3) ?x1628 ?x1624 ?x1621 ?x1882) 0.0)))
 (let (($x199589 (or $x506 (not (<= (+ (* 3.0 A_0) ?x2098 A_4 ?x701 ?x1655 ?x1931) 0.0)) $x2093 $x2394 $x18313)))
 (let (($x121766 (or $x2394 (<= (+ L_3 ?x796 S_4 L_1 ?x851 ?x703 A_0) 0.0) (<= (+ L_3 ?x796 S_4 ?x712 A_1 ?x1274) 0.0))))
 (let (($x6500 (<= (+ L_3 ?x796 S_4 ?x712 L_2 A_1 ?x716) 0.0)))
 (let (($x484007 (or $x638 $x2394 $x4065 (<= (+ ?x730 A_3 ?x8323 (* (- (/ 1.0 2.0)) S_3) ?x8293 L_2 ?x716) 0.0))))
 (let (($x3922 (<= (+ ?x863 L_0 S_1 ?x922 L_4 ?x730 A_3) 0.0)))
 (let ((?x1288 (* (- 1.0) S_2)))
 (let ((?x40412 (* (/ 1.0 2.0) L_2)))
 (let ((?x39656 (* (- (/ 1.0 2.0)) A_2)))
 (let ((?x1271 (* (- 4.0) A_3)))
 (let ((?x843 (* 4.0 L_3)))
 (let (($x1273 (<= (+ S_4 ?x863 L_0 (* (- 4.0) L_2) ?x843 (* 4.0 A_2) ?x1271) 0.0)))
 (let (($x182979 (or $x506 $x1611 $x2160 (<= (+ L_3 ?x796 ?x703 ?x1288 S_0 A_4 ?x701 L_1) 0.0))))
 (let (($x21669 (<= (+ ?x1621 ?x1882 (* 2.0 S_2) ?x922 L_4 ?x721 A_2) 0.0)))
 (let (($x10496 (<= (+ ?x1627 A_1 ?x1298 ?x1275 ?x730 A_0 ?x1278 A_3) 0.0)))
 (let (($x9270 (<= (+ ?x1297 ?x703 ?x1298 ?x1275 ?x1277 (* (- 3.0) A_2) ?x1279) 0.0)))
 (let (($x1300 (<= (+ ?x1297 ?x703 ?x1298 ?x712 (* 3.0 L_2) ?x1277 (* (- 3.0) A_2) ?x1279) 0.0)))
 (let (($x8410 (not $x8442)))
 (let (($x1296 (<= (+ ?x863 L_0 S_2 ?x1291 ?x1292 ?x1293 ?x1294) 0.0)))
 (let (($x10453 (<= (+ L_1 ?x851 S_2 ?x721 L_3 A_2 ?x796) 0.0)))
 (let (($x1930 (<= (+ A_0 ?x703 ?x1853 ?x1282 L_3 ?x1706 ?x1284 ?x796) 0.0)))
 (let (($x182140 (or $x506 $x1930 $x6547 $x13309 $x18320 (<= (+ ?x1293 ?x1291 ?x1269 L_1 ?x851) 0.0))))
 (let (($x11135 (<= (+ L_1 ?x851 S_2 ?x922 L_4 ?x730 A_3) 0.0)))
 (let (($x1863 (<= (+ A_0 ?x703 ?x1288 L_1 ?x721 ?x851 A_2) 0.0)))
 (let (($x7190 (<= (+ L_3 ?x796 S_1 A_4 ?x701 L_2 ?x716) 0.0)))
 (let (($x40760 (<= (+ ?x38629 ?x40354 ?x8423 ?x8419 L_3 ?x796) 0.0)))
 (let (($x38436 (<= (+ (* (- (/ 1.0 2.0)) L_3) (* (/ 1.0 2.0) A_3) ?x27975 ?x28504 L_2 ?x716) 0.0)))
 (let (($x490066 (or $x506 $x1611 (<= (+ ?x1297 ?x1707 (* (- 2.0) S_2) L_1 ?x730 ?x851 A_3) 0.0) (<= (+ A_0 ?x1707 (* (- 3.0) S_2) S_0 ?x730 L_1 A_3) 0.0))))
 (let (($x1302 (<= (+ ?x863 L_0 S_1 ?x721 L_3 A_2 ?x796) 0.0)))
 (let (($x1642 (<= (+ ?x1621 ?x851 S_0 L_3 ?x1291 ?x863 ?x1293 ?x796) 0.0)))
 (let (($x1238 (<= (+ ?x1269 A_0 ?x703 (* 3.0 L_2) ?x1197 (* (- 3.0) A_2) ?x1198) 0.0)))
 (let (($x7181 (<= (+ ?x1292 ?x1294 A_0 ?x703 S_2 ?x1628 ?x1624 ?x1275 ?x1278) 0.0)))
 (let ((?x1230 (* (- 3.0) A_2)))
 (let ((?x4394 (* (- 2.0) S_1)))
 (let (($x22199 (<= (+ ?x1575 ?x1865 ?x4394 A_4 ?x701 (* 3.0 L_2) ?x1297 ?x1230) 0.0)))
 (let (($x7471 (<= (+ ?x1297 ?x703 ?x1298 A_4 ?x701 ?x712 ?x1275 ?x1278) 0.0)))
 (let (($x488346 (or $x7471 $x9542 $x22199 (not (<= (+ ?x1627 ?x1865 ?x4394 A_4 ?x701 L_2 ?x1297 ?x1230) 0.0)))))
 (let (($x43665 (<= (+ ?x730 A_3 ?x8423 (* (- (/ 1.0 2.0)) S_3) ?x8419 ?x922 L_4 ?x721 A_2) 0.0)))
 (let (($x2127 (<= (+ (* 3.0 A_0) ?x2098 (* (- 3.0) S_2) A_4 ?x701 L_1 ?x851) 0.0)))
 (let (($x217250 (or $x506 $x1611 $x2127 (<= (+ ?x1297 ?x2098 (* (- 4.0) S_2) S_0 A_4 ?x701 L_1) 0.0))))
 (let (($x219737 (or $x636 (<= (+ ?x1297 ?x703 ?x1298 ?x3919 ?x3917 ?x712 ?x843 ?x1271) 0.0) $x9542 (<= (+ ?x1627 A_1 ?x1298 ?x1628 ?x1624 ?x1283 A_0 ?x1285) 0.0) (<= (+ A_2 ?x721 ?x712 ?x1298 A_4 ?x701 ?x1292 A_0 ?x1294) 0.0))))
 (let (($x7515 (<= (+ (* (- 2.0) S_4) ?x1297 ?x1707 ?x3919 ?x3917 (* 3.0 L_2) ?x1230) 0.0)))
 (let (($x505114 (or $x661 $x6547 $x7515 (<= (+ ?x712 A_1 ?x1269 A_4 ?x701 L_2 ?x716) 0.0))))
 (let (($x201016 (or $x6547 (<= (+ (* (- (/ 1.0 3.0)) S_4) ?x12525 ?x12526 S_1) 0.0) (<= (+ A_2 ?x721 ?x1269 ?x863 L_0 S_1) 0.0))))
 (let (($x3876 (<= (+ A_0 ?x703 ?x1274 ?x1628 ?x1624 ?x1292 ?x1294) 0.0)))
 (let (($x20891 (<= (+ (* (/ 2.0 3.0) A_0) (* (/ 1.0 3.0) L_0) ?x12551 ?x1298 ?x922 L_4 ?x712) 0.0)))
 (let (($x203663 (or $x9542 (<= (+ ?x12462 ?x12486 ?x12508 ?x1298 L_2 ?x712 ?x716) 0.0) (not (<= (+ ?x12462 ?x12486 ?x12508 ?x1298 ?x716) 0.0)) $x33275)))
 (let (($x211006 (or (<= (+ ?x12462 ?x12486 ?x12508 ?x1298 L_2 ?x730 ?x716) 0.0) (not $x13549) $x33457 $x40760)))
 (let (($x200123 (or $x661 $x1326 $x6547 (<= (+ ?x712 A_1 ?x1269 ?x1275 ?x1277 ?x1278 ?x1279) 0.0))))
 (let (($x1606 (<= (+ L_1 ?x1269 S_0 ?x730 ?x863 A_3) 0.0)))
 (let (($x175914 (or $x506 $x1606 (<= (+ (* (- 2.0) S_4) ?x1297 ?x1707 ?x1853 ?x1197 ?x1706 ?x1198) 0.0) $x6547)))
 (let (($x231477 (or $x661 $x2394 (<= (+ A_0 ?x703 ?x1274 A_4 ?x701 L_2 ?x716) 0.0) (<= (+ ?x1627 ?x1865 (* (- 2.0) S_3) A_4 ?x701 L_2 ?x716) 0.0))))
 (let (($x205582 (or $x661 (<= (+ A_0 ?x703 ?x1274 ?x1275 ?x1277 ?x1278 ?x1279) 0.0) $x2394 $x47978)))
 (let (($x3936 (<= (+ ?x1628 ?x1624 ?x712 ?x1283 A_1 ?x1285) 0.0)))
 (let (($x195628 (or $x661 $x1326 $x2394 (<= (+ ?x712 A_1 ?x1274 L_2 ?x730 ?x716 A_3) 0.0))))
 (let (($x22704 (<= (+ ?x1627 ?x1865 ?x4394 A_4 ?x701 (* 3.0 L_2) ?x1277 ?x1297 ?x1230) 0.0)))
 (let (($x1918 (<= (+ A_4 ?x701 ?x1627 (* 3.0 L_2) ?x1865 ?x1230) 0.0)))
 (let ((?x37969 (* (- (/ 1.0 3.0)) L_4)))
 (let ((?x38005 (* (/ 1.0 3.0) A_4)))
 (let ((?x38241 (* (/ 1.0 3.0) L_1)))
 (let (($x228968 (or $x506 $x1326 $x1611 (<= (+ ?x716 L_2 ?x1288 ?x703 S_0 ?x730 L_1 A_3) 0.0))))
 (let (($x1316 (<= (+ A_4 ?x701 ?x721 ?x1292 A_2 ?x1294) 0.0)))
 (let (($x489067 (or $x636 $x2160 $x6547 (<= (+ ?x712 A_1 ?x1269 ?x1628 ?x1624 ?x1292 ?x1294) 0.0) $x34719)))
 (let (($x38145 (<= (+ (* (- (/ 2.0 3.0)) S_4) (* (- (/ 1.0 3.0)) A_0) (* (/ 1.0 3.0) L_0) S_2) 0.0)))
 (let (($x490002 (or $x9542 $x11781 (<= (+ (* (- (/ 5.0 3.0)) L_1) ?x38015 ?x35559 ?x1298 L_2 A_0 ?x716) 0.0) (not $x33731))))
 (let (($x509164 (or $x661 $x1611 (<= (+ ?x1297 ?x1707 (* (- 2.0) S_2) A_4 ?x701 L_2 ?x716) 0.0))))
 (let (($x163528 (or $x506 $x1611 $x1863 (<= (+ ?x703 (* (- 2.0) S_2) S_0 ?x721 L_1 A_2) 0.0))))
 (let (($x7526 (<= (+ ?x922 L_4 L_2 ?x1277 ?x716 ?x1279) 0.0)))
 (let (($x22831 (or $x2394 (<= (+ ?x11316 ?x8323 ?x8293 ?x1274) 0.0) (<= (+ ?x1627 ?x1865 S_4 (* (- 3.0) S_3)) 0.0))))
 (let (($x207640 (or $x636 $x2160 $x2394 (<= (+ ?x712 A_1 ?x1274 A_4 ?x701 L_3 ?x796) 0.0))))
 (let (($x161692 (or $x506 $x1880 $x2394 (<= (+ ?x863 ?x1274 S_0 ?x721 L_1 A_2) 0.0))))
 (let (($x208719 (or $x506 (not (<= (+ ?x1659 ?x701 L_1 ?x851 ?x1198) 0.0)) $x2160 $x2394 $x11155)))
 (let (($x12365 (or $x1611 (<= (+ ?x12462 (* (- (/ 4.0 3.0)) L_0) ?x12508 (* (- 2.0) S_2)) 0.0))))
 (let (($x12169 (or $x1611 (<= (+ ?x11316 ?x8402 (* (- (/ 3.0 2.0)) L_0) (* (- 2.0) S_2)) 0.0))))
 (let (($x1322 (<= (+ ?x712 ?x1275 ?x730 A_1 ?x1278 A_3) 0.0)))
 (let (($x508177 (or $x661 (<= (+ A_0 ?x703 (* 3.0 L_2) ?x1277 ?x1230 ?x1279) 0.0) $x1611)))
 (and (<= ?x712 ?x703) (<= ?x701 ?x730) (<= ?x721 ?x712) (<= ?x730 ?x721) (or $x661 $x1909 $x2394) $x508177 (or $x661 (<= (+ L_2 ?x730 A_1 ?x1278 A_3) 0.0) $x1611) (or (not (<= (+ L_2 ?x730 A_1 ?x1278 A_3) 0.0)) $x1322 $x1611) (or $x661 $x1290 $x1611) (or $x506 $x1326 $x1606 $x6547) (or $x642 $x661 $x6547 (<= (+ ?x922 ?x701 L_2 ?x716 ?x1279) 0.0)) (or $x636 (<= (+ A_4 ?x701 L_3 A_2 ?x1294) 0.0) $x6547) (or $x661 $x1322 $x6547) (or $x642 $x661 $x6547 $x7526) $x12169 $x12365 (or $x661 $x1911 $x2394) (or $x642 $x2394 $x3863) (or $x661 $x1322 $x2394) (or $x642 $x2394 (<= (+ L_1 ?x851 S_4 ?x3883 ?x3885 ?x1197 ?x1198) 0.0)) (or $x642 $x6563 $x9542 (<= (+ ?x1621 ?x1882 ?x2128 ?x1298 ?x922 A_0) 0.0)) (or $x636 $x2394 (<= (+ L_1 ?x851 S_4 ?x1282 ?x1283 ?x1284 ?x1285) 0.0)) $x208719 $x161692 (or $x636 $x1316 $x2394) $x207640 (or $x642 $x2394 $x11135) (or $x506 $x642 $x2394 $x6563 $x11155) (or $x661 $x1322 $x9542) (or $x642 (<= (+ ?x712 S_4 ?x1298 ?x922 L_4 A_0) 0.0)) (or $x642 $x661 $x2394 $x7526) $x22831 (or $x636 (<= (+ ?x712 S_3 ?x1298 L_3 A_0 ?x796) 0.0)) (or $x661 $x9270 $x9542 $x10496) (or $x661 (not (<= (+ ?x922 ?x701 L_2 ?x716 ?x1279) 0.0)) $x7526 $x9542) (or $x642 $x661 $x7526 $x9542) (or $x2394 (<= (+ ?x863 L_0 ?x1274 (* 2.0 S_1)) 0.0)) $x163528 (or $x642 $x2394 $x7245 $x7482) (or $x661 $x2394 $x6500) (or $x636 $x2394 $x10453) (or $x638 $x1290 $x1611 $x3878) (or $x636 $x1316 $x1611) (or $x642 $x1611 $x2082) (or $x642 $x1611 $x2133 $x2452 $x7245) $x509164 (or $x661 $x1918 $x6547) (or $x661 $x1909 $x6547) (or $x661 $x2394 (<= (+ ?x11316 ?x8423 ?x8419 ?x1275 ?x1627 ?x1865 ?x1278) 0.0)) (or $x636 $x1316 $x9542) $x490002 (or $x506 $x642 $x1611 $x2148 $x3924) (or $x661 $x1611 $x1918) (or $x661 $x38688) (or $x6547 $x38145) (or $x6547 (<= (+ L_1 ?x851 ?x1269 (* 2.0 S_2)) 0.0)) (or $x661 $x1273 $x4249 $x9542) $x489067 (or $x661 $x1911 $x6547) (or $x1316 (not (<= (+ A_4 ?x701 L_3 A_2 ?x1294) 0.0)) $x6547) (or $x636 $x9542 (<= (+ L_1 ?x851 S_4 ?x1282 ?x1283 ?x1284 ?x1285) 0.0)) (or $x642 $x3863 $x9542) (or $x642 $x9542 (<= (+ L_1 ?x851 S_4 ?x3883 ?x3885 ?x1197 ?x1198) 0.0)) (or $x661 $x6500 $x9542) (or $x1611 (<= (+ ?x1278 ?x1275 ?x1767 ?x1297 (* (- 2.0) S_2) ?x1707) 0.0)) (or $x642 $x6547 $x33379) $x228968 (or $x642 $x661 $x1611 $x7526) (or $x642 $x3878 $x7245 $x7474) (or $x642 $x1863 $x2088 $x3878 $x7474) (or $x642 $x1611 (not $x3878) $x7474) (or $x1611 (<= (+ L_3 ?x796 S_4 A_0 ?x703 ?x1288) 0.0)) (or $x638 $x657 $x855 $x1611 $x3936) (or $x636 (<= (+ ?x863 L_0 S_3 ?x1282 ?x1283 ?x1284 ?x1285) 0.0) $x1611) (or $x636 $x1273 $x1611) (or $x506 $x636 $x1305 $x1611 $x4313) (or $x636 $x1302 $x1611) (or $x661 $x2394 $x4490 $x7229) (or $x661 $x9542 (<= (+ ?x11316 ?x8423 ?x8419 ?x1275 ?x1627 ?x1865 ?x1278) 0.0)) (or $x642 $x2084 $x2442 $x7245 $x9542) (or $x642 $x3873 $x9542) (or $x642 (<= (+ ?x863 L_0 S_2 ?x1659 ?x1657 ?x1277 ?x1279) 0.0) $x9542) (or $x506 $x642 $x2148 $x3924 $x9542) (or $x661 $x9542 (<= (+ ?x38241 ?x38015 ?x38005 ?x37969 L_2 ?x730 ?x716) 0.0)) (or $x642 $x6563 $x9542 $x21669) (or $x642 $x9542 $x21379) (or $x506 $x642 $x2152 $x2394 $x7245 $x7518) (or $x661 $x1918 $x2394) (or $x661 $x7471 $x9542 $x22704) $x195628 (or $x636 $x6547 $x10477) (or $x636 $x9542 $x10477) (or $x506 $x636 $x1642 $x9542) (or $x642 $x2082 $x6547) (or $x638 $x657 $x3936 $x6547 $x10506) (or $x636 $x6547 $x10453) (or $x506 $x636 $x1642 $x1930 $x6547) (or $x636 $x1302 $x6547) (or $x636 (<= (+ ?x863 L_0 S_3 ?x1282 ?x1283 ?x1284 ?x1285) 0.0) $x6547) (or $x661 $x1238 $x6547 $x10506) (or $x1296 $x6547 $x8410) $x205582 (or $x506 $x642 $x2152 $x6547 $x7518) (or $x506 $x1880 $x2088 $x3876 $x18313) $x231477 $x175914 $x200123 (or $x661 (not $x1326) $x1238 $x6547) $x211006 $x203663 (or $x661 $x9542 $x12542) (or $x642 $x9542 $x20891) (or $x1296 $x2394 $x8410) (or $x636 $x2394 $x8442) (or $x636 $x2088 $x2394 $x3876) (or $x642 $x3876 $x20676 $x43665) (or $x642 $x2394 $x7245 $x7516) (or $x642 $x2394 $x7245 $x7474) (or $x506 $x642 $x2152 $x3876 $x7518 $x43665) $x201016 (or $x642 $x3922 $x6547) (or $x506 $x636 $x1305 $x1930 $x6547) (or $x642 $x6547 $x21669) (or $x642 $x6547 $x21379) (or $x642 $x6547 $x20676) (or $x642 $x6547 $x7482) (or $x506 $x642 $x6547 $x6563 $x13575) $x505114 $x219737 (or $x506 $x2160 $x2394 $x43359 $x47978) (or $x506 $x2160 $x2394 $x18313 $x47978) $x217250 (or $x642 $x2394 $x7474 $x43665) (or $x642 $x2394 $x7516 $x43665) (or $x642 $x2394 $x7482 $x43665) (or $x642 $x2130 $x2394 $x7245) (or $x642 $x2394 $x7245 $x20676) (or $x506 $x1880 $x25845 $x47978) (or $x642 $x7231 $x19117 $x20676) $x488346 (or $x642 $x9542 $x33379) (or $x642 $x9542 $x11135) (or $x642 $x9542 (<= (+ L_1 ?x851 S_3 ?x1659 ?x1657 ?x1277 ?x1279) 0.0)) (or $x642 $x6547 $x7516) (or $x661 $x2394 $x4490 $x7181) (or $x661 $x4490 $x7181 $x9542) (or $x638 $x1238 $x4108 $x6547 $x10506) (or $x636 $x4108 $x6547 $x40760) (or $x638 $x1238 $x6547 $x10506 $x13348) (or $x6547 $x10506 $x13551 $x13717) (or $x661 $x2394 $x7190) (or $x661 $x2394 $x4490 $x7249) (or $x506 $x636 $x1642 $x2394 (not $x10506)) (or $x506 $x636 $x1305 $x2394 $x4313) (or $x636 $x1273 $x2394) (or $x636 $x1302 $x2394) (or $x638 $x2394 $x3936 $x4249) $x490066 (or $x638 $x1611 $x4065 $x38436 $x40760) (or $x642 $x1611 $x7216 $x20676) (or $x661 $x1611 $x7190) (or $x661 $x1611 $x7229) (or $x506 $x661 $x1611 $x1863 $x7179) (or $x642 $x6547 (<= (+ L_1 ?x851 S_3 ?x1659 ?x1657 ?x1277 ?x1279) 0.0)) (or $x642 $x6547 $x11135) (or $x642 $x6547 (<= (+ L_1 ?x851 S_4 ?x3883 ?x3885 ?x1197 ?x1198) 0.0)) (or $x506 $x642 $x6547 $x6563 $x11155) $x182140 (or $x642 $x6547 (<= (+ ?x716 L_2 S_4 ?x1659 ?x1657 ?x1277 ?x1279) 0.0)) (or $x642 $x1611 $x3873) (or $x642 $x1611 $x3863) (or $x642 $x1611 $x3922) (or $x661 $x1909 $x9542) (or $x636 $x9542 $x10453) (or $x636 $x8442 $x9542) (or $x1296 $x8410 $x9542) (or $x1300 (not $x9270) $x9542 $x10496) (or $x642 $x2394 $x6563 $x21669) $x182979 (or $x506 $x636 $x1305 $x4313 $x9542) (or $x636 $x1273 $x9542) (or $x636 (<= (+ ?x863 L_0 S_3 ?x1282 ?x1283 ?x1284 ?x1285) 0.0) $x9542) (or $x661 $x1611 $x7249) (or $x1611 (<= (+ ?x39656 ?x40412 ?x11316 A_0 ?x1288 ?x703) 0.0)) (or $x506 $x642 $x1611 $x2152 $x7245 $x7518) (or $x642 $x1611 $x7245 $x20676) (or $x642 $x1611 $x7245 $x7516) (or $x506 $x661 $x1611 $x2160 $x7179) (or $x642 $x1611 $x7216 $x7474) (or $x642 $x1611 $x7216 $x7516) (or $x506 $x642 $x1611 $x2160 $x7216 $x7518) (or $x642 $x2130 $x6547) (or $x642 $x1611 $x2130 $x7245) (or $x506 $x642 $x2148 $x2394 $x3924) (or $x642 $x2394 (<= (+ ?x863 L_0 S_2 ?x1659 ?x1657 ?x1277 ?x1279) 0.0)) (or $x642 $x2394 $x3922) $x484007 (or $x661 $x1611 $x6500) (or $x661 $x1611 (<= (+ ?x11316 ?x8423 ?x8419 ?x1275 ?x1627 ?x1865 ?x1278) 0.0)) (or $x506 $x661 $x1903 $x2160 $x2394 $x7179) (or $x506 $x661 $x1880 $x2394 $x4490 $x7179) $x121766 (or $x642 $x2084 $x2394 $x7245) $x199589 (or $x506 $x642 $x2088 $x2152 $x3878 $x7216 $x7518) (or $x642 $x2133 $x2394 $x113146) (or $x642 $x2133 $x2394 $x7245) (or $x642 $x2394 $x6563 $x13345) $x128845 (or $x642 $x7245 $x7474 $x9542) (or $x661 $x4490 $x7229 $x9542) (or $x642 $x6563 $x9542 $x13345) $x194745 (or (not $x19117) (<= (+ S_3 ?x1298 A_0 ?x796) 0.0) $x34904) (or (not $x19117) (<= (+ S_3 ?x1298 A_0 ?x796) 0.0) $x33457) (or $x642 $x19117 $x34904) (or $x642 $x19117 $x33457) (or $x506 $x642 $x9542 $x11155) (or $x642 $x6563 $x7482 $x9542) (or $x642 $x6563 $x7474 $x9542) (or $x506 $x642 $x6563 $x7518 $x9542) (or $x642 $x6563 $x9542 $x20676) (or $x506 $x642 $x6563 $x9542 $x13575) (or $x642 $x7231 $x7474 $x9542) (or $x642 $x2394 $x21379) (or $x642 $x2394 $x6563 $x20676) (or $x642 $x2394 $x6563 $x7482) (or $x642 $x2394 $x6563 $x7516) (or $x506 $x642 $x2394 $x6563 $x7518) (or $x642 $x2394 $x6563 $x7474) (or $x506 $x642 $x2394 $x6563 $x13575) (or $x638 $x1290 $x10506 $x36557) (or $x661 $x4490 $x7249 $x9542) (or $x506 $x642 $x1326 $x1611 $x65588) $x194457 (or $x642 $x1611 $x33379) (or $x506 $x1326 $x2088 $x2394 $x18313) (or $x642 $x9542 $x16376 $x40833) $x498182 (or $x506 $x2160 (not $x4312) $x6547 $x18320 $x65224) (or $x9542 $x37543 (not $x37373)) (or $x506 $x642 $x2152 $x7231 $x7518 $x9542) (or $x642 $x7231 $x9542 $x20676) (or $x642 $x7231 $x7482 $x9542) $x220404 (or $x506 $x1611 $x2412 $x65748) (or $x642 $x1611 (<= (+ ?x716 L_2 S_4 ?x1659 ?x1657 ?x1277 ?x1279) 0.0)) (or $x506 $x642 $x2152 $x7245 $x7518 $x9542) (or $x642 $x7245 $x7482 $x9542) (or $x642 $x7245 $x9542 $x20676) (or $x661 $x6547 $x12542) (or $x636 $x3719 $x9551) (or $x636 $x4065 $x9551 $x10506) (or $x638 $x1911 $x2394 $x13348) (or $x506 $x642 $x1326 $x6547 $x35337) (or $x506 $x642 $x2148 $x3924 $x6547) (or $x642 (<= (+ ?x863 L_0 S_2 ?x1659 ?x1657 ?x1277 ?x1279) 0.0) $x6547) (or $x642 $x3873 $x6547) (or $x642 $x3863 $x6547) $x484803 $x503811 (or $x6547 $x8394 $x8444) (or $x642 $x1611 $x2084 $x2442 $x7245) (or $x642 $x9542 (<= (+ ?x716 L_2 S_4 ?x1659 ?x1657 ?x1277 ?x1279) 0.0)) (or $x638 $x1909 $x2394 $x8440) $x498186 (or $x506 $x1326 $x6547 $x13309 $x18320 $x65224) (or $x2394 $x13551 $x13717) (or $x638 $x2394 $x4065 $x4249) (or $x661 $x1611 $x12542) (or $x661 $x1611 $x1911) (or $x636 $x3719 $x6547) (or $x636 $x6547 $x13348 $x40760) $x501342 (or $x3719 $x9529 $x9571) (or $x638 $x1611 $x4065 $x10506 (<= (+ ?x37492 ?x38015 ?x35559 L_2 ?x716) 0.0)) (or $x636 $x1611 $x10506 $x13348) (or $x1611 $x10506 $x13551 $x13717) $x207563 $x501061 (or $x506 $x636 $x1305 $x4313 $x6547) (or $x642 $x2133 (<= (+ ?x1293 ?x1291 ?x863 L_0 ?x922 L_4) 0.0) $x6547) (or $x636 $x6547 $x8442) $x500014 $x500700 $x200804 (or $x638 $x657 $x9542 $x10506 $x36557) $x202826 (or $x642 $x9542 $x16376 $x16625) (or $x642 $x2082 $x9542) $x497683 (or $x638 $x657 $x4108 $x9542 $x10506) (or $x4065 $x9529 $x9571 $x10506) (or $x638 $x1290 $x4108 $x10506) (or $x638 $x855 $x1611 $x4108 $x4249) (or $x2394 $x8394 $x8444) $x490637 (or $x642 $x2133 $x6547 (<= (+ ?x38629 ?x40354 ?x1269 ?x8423 ?x8419) 0.0)) (or $x642 $x2133 $x2452 $x6547) (or $x661 $x9542 $x13549 $x33275) (or $x506 $x661 $x2160 $x4490 $x7179 $x9542) (or $x506 $x642 $x1326 $x9542 $x35337) (or $x642 $x2130 $x7245 $x9542) (or $x661 $x9542 $x67466 $x151757) $x208771 (or $x661 $x9542 $x11628 $x33731) $x486315 $x510233 (<= (+ S_0 L_0 ?x863) 0.0) (<= (+ L_1 ?x851 S_1) 0.0) (<= (+ ?x1298 S_0) 0.0) (<= (+ ?x716 L_2 S_2) 0.0) (<= (+ S_4 ?x922 L_4) 0.0) (<= (+ L_3 ?x796 S_3) 0.0) (<= (+ (* (- 3.0) S_3) ?x2128) 0.0) (<= (+ (* (- 2.0) S_4) ?x1767) 0.0) (<= (+ (* (- 2.0) S_2) (* 2.0 S_1)) 0.0)))))))))))))))))))))))))))))))))))))))))))))))))))))))))))))))))))))))))))))))))))))))))))))))))))))))))))))))))))))))))))))))))))))))))))))))))))))))))))))))))))))))))))))))))))))))))))))))))))))))))))))))))))))))))))))))))))))))))))))))))))))))))))))))))))))))))))))))))))))))))))))))))))))))))))))
(check-sat)
